(set-info :smt-lib-version 2.6)
(set-info :category "crafted")
(set-logic QF_FFA)
(define-sort FF0 () (_ FiniteField 52435875175126190479447740508185965837690552500527637822603658699938581184513))
(declare-fun c () Bool)
(declare-fun b () Bool)
(declare-fun d () Bool)
(declare-fun f () Bool)
(declare-fun e () Bool)
(declare-fun a () Bool)
(declare-fun out () FF0)
(declare-fun _14 () FF0)
(declare-fun _13 () FF0)
(declare-fun _10 () FF0)
(declare-fun _9 () FF0)
(declare-fun _12 () FF0)
(declare-fun _5 () FF0)
(declare-fun _4 () FF0)
(declare-fun _0 () FF0)
(declare-fun _2 () FF0)
(declare-fun _3 () FF0)
(declare-fun _1 () FF0)
(assert 
  (let ((let0 c))
  (let ((let1 b))
  (let ((let2 d))
  (let ((let3 (ite let2 let1 let0)))
  (let ((let4 f))
  (let ((let5 e))
  (let ((let6 a))
  (let ((let7 (or let6 let5 let4 let3)))
  (let ((let8 out))
  (let ((let9 (as ff1 FF0)))
  (let ((let10 (= let9 let8)))
  (let ((let11 (= let10 let7)))
  (let ((let12 (as ff0 FF0)))
  (let ((let13 (= let12 let8)))
  (let ((let14 (or let10 let13)))
  (let ((let15 (and let14 let11)))
  (let ((let16 _14))
  (let ((let17 (= let16 let8)))
  (let ((let18 (as ff52435875175126190479447740508185965837690552500527637822603658699938581184512 FF0)))
  (let ((let19 (ff.mul let16 let18)))
  (let ((let20 _13))
  (let ((let21 _10))
  (let ((let22 _9))
  (let ((let23 (ff.add let22 let21 let20 let19)))
  (let ((let24 (ff.add let22 let21)))
  (let ((let25 (ff.mul let20 let24)))
  (let ((let26 (= let25 let23)))
  (let ((let27 (ff.mul let20 let18)))
  (let ((let28 _12))
  (let ((let29 _5))
  (let ((let30 (ff.add let29 let28 let27)))
  (let ((let31 (ff.mul let28 let29)))
  (let ((let32 (= let31 let30)))
  (let ((let33 (ff.mul let28 let18)))
  (let ((let34 _4))
  (let ((let35 _0))
  (let ((let36 (ff.add let35 let34 let33)))
  (let ((let37 (ff.mul let35 let34)))
  (let ((let38 (= let37 let36)))
  (let ((let39 _2))
  (let ((let40 _3))
  (let ((let41 (ff.mul let40 let18)))
  (let ((let42 (ff.add let41 let9)))
  (let ((let43 (ff.mul let42 let39)))
  (let ((let44 (= let43 let21)))
  (let ((let45 _1))
  (let ((let46 (ff.mul let40 let45)))
  (let ((let47 (= let46 let22)))
  (let ((let48 (ff.mul let29 let29)))
  (let ((let49 (= let48 let29)))
  (let ((let50 (ff.mul let34 let34)))
  (let ((let51 (= let50 let34)))
  (let ((let52 (ff.mul let40 let40)))
  (let ((let53 (= let52 let40)))
  (let ((let54 (ff.mul let39 let39)))
  (let ((let55 (= let54 let39)))
  (let ((let56 (ff.mul let45 let45)))
  (let ((let57 (= let56 let45)))
  (let ((let58 (ff.mul let35 let35)))
  (let ((let59 (= let58 let35)))
  (let ((let60 (and let59 let57 let55 let53 let51 let49 let47 let44 let38 let32 let26 let17)))
  (let ((let61 (ite let6 let9 let12)))
  (let ((let62 (= let35 let61)))
  (let ((let63 (ite let4 let9 let12)))
  (let ((let64 (= let29 let63)))
  (let ((let65 (ite let5 let9 let12)))
  (let ((let66 (= let34 let65)))
  (let ((let67 (ite let2 let9 let12)))
  (let ((let68 (= let40 let67)))
  (let ((let69 (ite let0 let9 let12)))
  (let ((let70 (= let39 let69)))
  (let ((let71 (ite let1 let9 let12)))
  (let ((let72 (= let45 let71)))
  (let ((let73 (and let72 let70 let68 let66 let64 let62)))
  (let ((let74 (and let73 let60)))
  (let ((let75 (=> let74 let15)))
  (let ((let76 (not let75)))
  let76
)))))))))))))))))))))))))))))))))))))))))))))))))))))))))))))))))))))))))))))
)
(check-sat)
